Instance0
0.0000;0.0000;106
0.0000;Cuts:4;111
0;Cuts:5;112
cutoff;0.0000;112
CPXPARAM_MIP_Cuts_Gomory-LiftProj:Gomory 3
CPXPARAM_MIP_Cuts_Gomory-LiftProj:LiftProj 4
Instance1
0.0000;0.0000;113
0.0000;0.0000;113
CPXPARAM_MIP_Cuts_Gomory-LiftProj:Gomory 0
CPXPARAM_MIP_Cuts_Gomory-LiftProj:LiftProj 0
Instance2
0;-0.0000;101
CPXPARAM_MIP_Cuts_Gomory-LiftProj:Gomory 0
CPXPARAM_MIP_Cuts_Gomory-LiftProj:LiftProj 0
Instance3
0;-0.0000;76
CPXPARAM_MIP_Cuts_Gomory-LiftProj:Gomory 0
CPXPARAM_MIP_Cuts_Gomory-LiftProj:LiftProj 0
Instance4
0.0000;0.0000;109
0.0000;LiftProj:3;135
0.0000;Cuts:2;139
0.0000;Cuts:2;140
0.0000;0.0000;140
CPXPARAM_MIP_Cuts_Gomory-LiftProj:Gomory 1
CPXPARAM_MIP_Cuts_Gomory-LiftProj:LiftProj 1
Instance5
0;-0.0000;118
CPXPARAM_MIP_Cuts_Gomory-LiftProj:Gomory 0
CPXPARAM_MIP_Cuts_Gomory-LiftProj:LiftProj 0
Instance6
0;0.0000;85
CPXPARAM_MIP_Cuts_Gomory-LiftProj:Gomory 0
CPXPARAM_MIP_Cuts_Gomory-LiftProj:LiftProj 0
Instance7
0;0.0000;72
CPXPARAM_MIP_Cuts_Gomory-LiftProj:Gomory 0
CPXPARAM_MIP_Cuts_Gomory-LiftProj:LiftProj 0
Instance8
-0.0000;-0.0000;123
-0.0000;LiftProj:2;145
-0.0000;Cuts:3;148
-0.0000;-0.0000;148
CPXPARAM_MIP_Cuts_Gomory-LiftProj:Gomory 2
CPXPARAM_MIP_Cuts_Gomory-LiftProj:LiftProj 2
Instance9
-0.0000;-0.0000;113
-0.0000;-0.0000;132
CPXPARAM_MIP_Cuts_Gomory-LiftProj:Gomory 0
CPXPARAM_MIP_Cuts_Gomory-LiftProj:LiftProj 0
Instance10
0.0000;0.0000;94
0;LiftProj:1;103
cutoff;0.0000;103
CPXPARAM_MIP_Cuts_Gomory-LiftProj:Gomory 0
CPXPARAM_MIP_Cuts_Gomory-LiftProj:LiftProj 0
Instance11
0;0.0000;88
CPXPARAM_MIP_Cuts_Gomory-LiftProj:Gomory 0
CPXPARAM_MIP_Cuts_Gomory-LiftProj:LiftProj 0
Instance12
0.0000;0.0000;106
0;LiftProj:2;148
cutoff;0.0000;148
CPXPARAM_MIP_Cuts_Gomory-LiftProj:Gomory 0
CPXPARAM_MIP_Cuts_Gomory-LiftProj:LiftProj 0
Instance13
-0.0000;-0.0000;102
0;-0.0000;115
-0.0000;-0.0000;-0.0000
CPXPARAM_MIP_Cuts_Gomory-LiftProj:Gomory 0
CPXPARAM_MIP_Cuts_Gomory-LiftProj:LiftProj 0
Instance14
-0.0000;-0.0000;78
0;-0.0000;86
-0.0000;-0.0000;-0.0000
CPXPARAM_MIP_Cuts_Gomory-LiftProj:Gomory 0
CPXPARAM_MIP_Cuts_Gomory-LiftProj:LiftProj 0
Instance15
0;0.0000;79
CPXPARAM_MIP_Cuts_Gomory-LiftProj:Gomory 0
CPXPARAM_MIP_Cuts_Gomory-LiftProj:LiftProj 0
Instance16
-0.0000;-0.0000;123
0;LiftProj:2;139
cutoff;-0.0000;139
CPXPARAM_MIP_Cuts_Gomory-LiftProj:Gomory 1
CPXPARAM_MIP_Cuts_Gomory-LiftProj:LiftProj 0
Instance17
0;-0.0000;95
CPXPARAM_MIP_Cuts_Gomory-LiftProj:Gomory 0
CPXPARAM_MIP_Cuts_Gomory-LiftProj:LiftProj 0
Instance18
0;-0.0000;72
CPXPARAM_MIP_Cuts_Gomory-LiftProj:Gomory 0
CPXPARAM_MIP_Cuts_Gomory-LiftProj:LiftProj 0
Instance19
0;0.0000;85
CPXPARAM_MIP_Cuts_Gomory-LiftProj:Gomory 0
CPXPARAM_MIP_Cuts_Gomory-LiftProj:LiftProj 0
Instance20
0.0000;0.0000;115
0.0000;0.0000;136
CPXPARAM_MIP_Cuts_Gomory-LiftProj:Gomory 0
CPXPARAM_MIP_Cuts_Gomory-LiftProj:LiftProj 0
Instance21
-0.0000;-0.0000;114
0.0000;0.0000;131
CPXPARAM_MIP_Cuts_Gomory-LiftProj:Gomory 0
CPXPARAM_MIP_Cuts_Gomory-LiftProj:LiftProj 0
Instance22
0;0.0000;68
CPXPARAM_MIP_Cuts_Gomory-LiftProj:Gomory 0
CPXPARAM_MIP_Cuts_Gomory-LiftProj:LiftProj 0
Instance23
0;0.0000;71
CPXPARAM_MIP_Cuts_Gomory-LiftProj:Gomory 0
CPXPARAM_MIP_Cuts_Gomory-LiftProj:LiftProj 0
Instance24
0.0000;0.0000;120
0.0000;Cuts:4;123
0;Cuts:2;124
cutoff;0.0000;124
CPXPARAM_MIP_Cuts_Gomory-LiftProj:Gomory 2
CPXPARAM_MIP_Cuts_Gomory-LiftProj:LiftProj 2
Instance25
0.0000;0.0000;151
0.0000;0.0000;151
CPXPARAM_MIP_Cuts_Gomory-LiftProj:Gomory 0
CPXPARAM_MIP_Cuts_Gomory-LiftProj:LiftProj 0
Instance26
0;0.0000;70
CPXPARAM_MIP_Cuts_Gomory-LiftProj:Gomory 0
CPXPARAM_MIP_Cuts_Gomory-LiftProj:LiftProj 0
Instance27
0;-0.0000;71
CPXPARAM_MIP_Cuts_Gomory-LiftProj:Gomory 0
CPXPARAM_MIP_Cuts_Gomory-LiftProj:LiftProj 0
Instance28
0.0000;0.0000;121
0.0000;LiftProj:1;124
0.0000;0.0000;124
CPXPARAM_MIP_Cuts_Gomory-LiftProj:Gomory 1
CPXPARAM_MIP_Cuts_Gomory-LiftProj:LiftProj 0
Instance29
-0.0000;-0.0000;126
-0.0000;-0.0000;149
CPXPARAM_MIP_Cuts_Gomory-LiftProj:Gomory 0
CPXPARAM_MIP_Cuts_Gomory-LiftProj:LiftProj 0
Instance30
0;0.0000;82
CPXPARAM_MIP_Cuts_Gomory-LiftProj:Gomory 0
CPXPARAM_MIP_Cuts_Gomory-LiftProj:LiftProj 0
Instance31
0;-0.0000;77
CPXPARAM_MIP_Cuts_Gomory-LiftProj:Gomory 0
CPXPARAM_MIP_Cuts_Gomory-LiftProj:LiftProj 0
Instance32
0.0000;0.0000;147
0.0000;LiftProj:1;176
0.0000;LiftProj:2;182
0.0000;Cuts:5;186
0.0000;0.0000;186
CPXPARAM_MIP_Cuts_Gomory-LiftProj:Gomory 0
CPXPARAM_MIP_Cuts_Gomory-LiftProj:LiftProj 2
Instance33
-0.0000;-0.0000;101
-0.0000;-0.0000;101
CPXPARAM_MIP_Cuts_Gomory-LiftProj:Gomory 0
CPXPARAM_MIP_Cuts_Gomory-LiftProj:LiftProj 0
Instance34
0;0.0000;75
CPXPARAM_MIP_Cuts_Gomory-LiftProj:Gomory 0
CPXPARAM_MIP_Cuts_Gomory-LiftProj:LiftProj 0
Instance35
0;0.0000;81
CPXPARAM_MIP_Cuts_Gomory-LiftProj:Gomory 0
CPXPARAM_MIP_Cuts_Gomory-LiftProj:LiftProj 0
Instance36
-0.0000;-0.0000;118
-0.0000;LiftProj:3;150
-0.0000;LiftProj:1;152
-0.0000;LiftProj:3;155
-0.0000;-0.0000;155
CPXPARAM_MIP_Cuts_Gomory-LiftProj:Gomory 2
CPXPARAM_MIP_Cuts_Gomory-LiftProj:LiftProj 0
Instance37
0;0.0000;118
CPXPARAM_MIP_Cuts_Gomory-LiftProj:Gomory 0
CPXPARAM_MIP_Cuts_Gomory-LiftProj:LiftProj 0
Instance38
0;0.0000;72
CPXPARAM_MIP_Cuts_Gomory-LiftProj:Gomory 0
CPXPARAM_MIP_Cuts_Gomory-LiftProj:LiftProj 0
Instance39
0;0.0000;81
CPXPARAM_MIP_Cuts_Gomory-LiftProj:Gomory 0
CPXPARAM_MIP_Cuts_Gomory-LiftProj:LiftProj 0
